p edge 46 116
e 1 2
e 1 5
e 1 27
e 2 8
e 2 19
e 2 20
e 3 5
e 3 6
e 3 24
e 3 27
e 3 28
e 3 34
e 3 40
e 4 10
e 4 17
e 4 18
e 4 23
e 4 28
e 4 29
e 4 34
e 4 42
e 4 44
e 4 46
e 5 9
e 5 15
e 5 20
e 7 14
e 7 20
e 7 23
e 7 26
e 7 36
e 7 38
e 8 27
e 8 28
e 8 30
e 9 26
e 9 28
e 10 21
e 10 23
e 10 38
e 10 43
e 11 37
e 11 38
e 11 41
e 11 45
e 11 46
e 12 22
e 12 30
e 12 35
e 12 43
e 13 17
e 13 22
e 13 43
e 14 16
e 14 21
e 14 22
e 14 35
e 14 38
e 14 43
e 15 28
e 15 36
e 15 44
e 16 18
e 16 22
e 16 25
e 16 32
e 16 38
e 17 18
e 17 19
e 17 22
e 17 25
e 17 26
e 17 38
e 18 31
e 18 38
e 18 46
e 19 23
e 19 24
e 19 37
e 20 26
e 20 39
e 20 43
e 21 46
e 22 46
e 23 29
e 23 44
e 24 25
e 24 29
e 24 36
e 24 45
e 25 27
e 25 31
e 25 33
e 26 32
e 26 38
e 26 42
e 27 36
e 28 30
e 29 35
e 30 34
e 30 36
e 31 40
e 31 46
e 32 39
e 32 41
e 32 44
e 33 34
e 34 41
e 35 39
e 36 39
e 36 42
e 36 46
e 40 43
e 40 46
e 42 45
e 44 46
